language ESSENCE' 1.0

letting n_classes be 30
letting n_options be 5
letting n_cars be 200
letting quantity_Function1D be
        [9, 5, 9, 2, 31, 8, 2, 19, 1, 5, 28, 5, 1, 7, 3, 6, 1, 8, 2, 7, 2, 12, 4, 1, 1, 6, 1, 1, 1, 12; int(1..30)]
letting usage_RelationAsSet_Explicit_1 be
        [1, 1, 2, 2, 3, 3, 4, 4, 4, 4, 5, 6, 7, 7, 7, 8, 8, 9, 9, 9, 9, 10, 10, 11, 11, 12, 12, 12, 13, 13, 13, 14, 14,
         15, 15, 15, 16, 17, 17, 17, 17, 18, 18, 18, 19, 19, 20, 20, 20, 21, 21, 22, 23, 23, 24, 24, 25, 25, 26, 26, 27;
             int(1..61)]
letting usage_RelationAsSet_Explicit_2 be
        [2, 3, 1, 5, 1, 4, 1, 2, 4, 5, 2, 3, 2, 4, 5, 2, 4, 1, 2, 3, 4, 3, 4, 1, 2, 1, 2, 5, 3, 4, 5, 1, 3, 1, 3, 4, 5,
         1, 2, 3, 5, 1, 2, 3, 4, 5, 2, 3, 4, 3, 5, 1, 2, 5, 1, 3, 2, 3, 1, 4, 1;
             int(1..61)]
letting blksize_Function1D be [2, 3, 3, 5, 5; int(1..5)]
letting maxcars_Function1D be [1, 2, 1, 2, 1; int(1..5)]
letting fin1 be 30
letting fin2 be 31
letting fin3 be 5
letting fin4 be 2
letting fin5 be 5
letting fin6 be 5
letting fin7 be 61
